31 30 26 34 31 31 33 29 28 30 30 30 32 32 34 28 33 32 33 27 
27 31 26 27 31 32 34 33 28 32 31 30 32 28 35 31 33 30 30 30 
34 31 29 30 31 30 32 32 33 32 31 30 33 34 30 29 31 30 28 36 
27 32 31 31 30 31 31 29 31 32 32 33 29 32 31 33 33 30 33 28 
31 30 33 32 30 30 33 32 34 31 31 30 33 30 33 29 29 30 35 28 
30 32 27 32 30 34 32 33 33 30 31 31 33 29 27 33 33 30 34 33 
31 30 26 27 32 34 28 33 28 31 31 29 29 32 32 31 30 30 30 28 
33 31 36 35 30 30 30 30 33 31 31 33 30 34 28 34 30 30 27 28 
32 32 34 35 31 30 29 32 29 31 31 30 33 32 33 30 33 30 28 35 
31 30 28 31 30 34 32 29 29 30 31 33 32 32 28 33 31 31 28 28 
30 30 29 27 31 34 34 31 33 30 30 30 30 32 31 29 29 30 35 27 
33 32 29 34 32 28 32 30 27 31 30 30 32 32 32 32 30 31 30 27 
35 31 28 29 32 33 31 32 29 32 31 29 31 29 33 33 30 30 32 32 
35 30 32 33 30 34 33 32 29 31 31 33 32 29 33 32 33 30 32 36 
34 32 33 30 30 30 32 30 35 32 31 29 29 28 35 30 30 32 32 34 
34 30 34 34 30 32 28 31 28 31 31 29 33 29 29 29 32 31 29 29 
35 31 33 28 30 33 30 30 32 30 31 30 29 32 28 34 29 32 33 33 
29 31 35 29 32 28 32 32 30 30 30 32 33 28 34 34 32 32 35 29 
30 30 33 30 32 30 29 33 28 30 31 32 30 29 35 32 32 32 35 34 
29 32 34 29 30 33 31 30 28 32 32 29 32 29 33 33 32 32 32 27 
30 30 35 30 32 29 29 32 29 31 31 29 32 28 33 34 29 30 33 30 
30 32 28 31 32 28 31 30 31 31 32 29 29 31 34 31 30 32 31 30 
27 30 36 34 30 32 31 30 32 31 31 30 31 29 31 30 32 32 28 32 
36 30 29 29 31 28 31 29 35 32 31 30 33 28 28 29 31 32 33 33 
29 32 32 28 31 32 34 30 32 32 31 33 30 30 29 31 31 30 27 28 
33 31 29 35 32 29 29 33 27 32 32 29 29 31 29 30 30 32 29 33 
28 30 28 32 30 30 28 30 29 32 31 29 32 30 35 32 31 32 32 27 
28 32 30 28 30 32 34 31 27 30 32 32 32 30 29 32 30 30 29 30 
29 32 34 32 30 31 33 32 35 30 32 29 32 30 28 29 33 30 35 36 
28 30 28 34 32 29 33 32 30 30 30 33 33 34 33 28 30 32 31 35 
26 31 34 32 32 34 31 29 27 31 30 31 29 34 35 30 29 31 29 31 
36 31 36 30 30 30 28 31 30 30 32 30 30 32 34 30 30 30 31 26 
29 31 33 35 31 29 33 33 29 31 32 31 29 32 28 29 29 32 35 36 
29 32 30 27 32 33 32 33 30 32 31 31 30 33 28 32 31 31 29 34 
36 31 28 31 31 29 30 31 35 32 32 30 33 33 35 31 32 31 32 27 
28 32 33 33 30 31 33 29 32 30 31 33 33 29 34 31 29 32 29 30 
29 31 27 28 32 29 31 32 34 31 30 30 29 29 34 30 30 32 34 30 
31 30 26 33 30 34 30 29 35 30 32 32 29 28 34 28 29 32 35 35 
29 31 33 33 30 30 29 33 30 31 30 29 32 28 32 30 30 30 33 26 
34 31 36 29 30 30 29 31 31 32 31 32 29 28 29 34 33 32 29 27 
32 31 33 33 30 29 30 31 31 32 32 32 30 30 34 29 30 30 27 26 
34 32 32 27 31 34 30 32 31 31 30 30 30 28 31 29 32 32 35 26 
34 31 33 35 31 33 30 29 35 32 32 33 30 32 31 34 29 31 31 33 
33 31 34 34 32 30 32 33 35 31 30 30 29 32 35 28 31 30 30 29 
26 30 36 29 32 29 31 33 35 30 32 32 30 28 32 31 33 30 30 31 
34 32 36 28 31 30 30 33 30 30 31 32 29 34 35 31 29 30 31 30 
30 30 35 35 31 30 33 31 29 31 32 29 29 28 31 32 30 31 27 27 
32 32 30 34 31 31 31 29 33 32 31 31 31 31 27 30 32 30 32 31 
31 31 30 29 32 28 32 29 34 31 31 30 31 28 31 31 31 32 29 33 
32 30 34 30 32 31 34 33 28 31 31 29 30 29 29 32 29 32 31 30 